results/res_prop_muc/res_Cimatti_mathsat_cores/QF_RDL/fischer9-mutex-2.smt
(benchmark fischer9_mutex_2.smt
  :source {
Source unknown
This benchmark was automatically translated into SMT-LIB format from
CVC format using CVC Lite
}
  :status unsat
:category { industrial }
:difficulty { 0 }
  :logic QF_RDL
  :extrafuns ((cvclZero Real))
  :extrasorts (ANY)
  :extrapreds ((x_0))
  :extrapreds ((x_1))
  :extrapreds ((x_2))
  :extrapreds ((x_3))
  :extrapreds ((x_4))
  :extrapreds ((x_5))
  :extrapreds ((x_6))
  :extrapreds ((x_7))
  :extrapreds ((x_8))
  :extrapreds ((x_9))
  :extrapreds ((x_10))
  :extrapreds ((x_11))
  :extrapreds ((x_12))
  :extrapreds ((x_13))
  :extrapreds ((x_14))
  :extrapreds ((x_15))
  :extrapreds ((x_16))
  :extrapreds ((x_17))
  :extrafuns ((x_18 Real))
  :extrafuns ((x_19 Real))
  :extrafuns ((x_20 Real))
  :extrafuns ((x_21 Real))
  :extrafuns ((x_22 Real))
  :extrafuns ((x_23 Real))
  :extrafuns ((x_24 Real))
  :extrafuns ((x_25 Real))
  :extrafuns ((x_26 Real))
  :extrafuns ((x_27 Real))
  :extrapreds ((x_28))
  :extrapreds ((x_29))
  :extrapreds ((x_30))
  :extrapreds ((x_31))
  :extrafuns ((x_32 Real))
  :extrafuns ((x_33 Real))
  :extrapreds ((x_34))
  :extrapreds ((x_35))
  :extrapreds ((x_36))
  :extrapreds ((x_37))
  :extrapreds ((x_38))
  :extrapreds ((x_39))
  :extrapreds ((x_40))
  :extrapreds ((x_41))
  :extrapreds ((x_42))
  :extrapreds ((x_43))
  :extrapreds ((x_44))
  :extrapreds ((x_45))
  :extrapreds ((x_46))
  :extrapreds ((x_47))
  :extrafuns ((x_48 Real))
  :extrafuns ((x_49 Real))
  :extrafuns ((x_50 Real))
  :extrafuns ((x_51 Real))
  :extrafuns ((x_52 Real))
  :extrafuns ((x_53 Real))
  :extrafuns ((x_54 Real))
  :extrafuns ((x_55 Real))
  :extrafuns ((x_56 Real))
  :extrafuns ((x_57 Real))
  :extrafuns ((x_58 Real))
  :extrafuns ((x_59 Real))
  :extrapreds ((x_60))
  :extrapreds ((x_61))
  :extrapreds ((x_62))
  :extrapreds ((x_63))
  :extrafuns ((x_64 Real))
  :extrafuns ((x_65 Real))
  :extrapreds ((x_66))
  :extrapreds ((x_67))
  :extrapreds ((x_68))
  :extrapreds ((x_69))
  :extrapreds ((x_70))
  :extrapreds ((x_71))
  :extrapreds ((x_72))
  :extrapreds ((x_73))
  :extrapreds ((x_74))
  :extrapreds ((x_75))
  :extrapreds ((x_76))
  :extrapreds ((x_77))
  :extrapreds ((x_78))
  :extrapreds ((x_79))
  :extrafuns ((x_80 Real))
  :extrafuns ((x_81 Real))
  :extrafuns ((x_82 Real))
  :extrafuns ((x_83 Real))
  :extrafuns ((x_84 Real))
  :extrafuns ((x_85 Real))
  :extrafuns ((x_86 Real))
  :extrafuns ((x_87 Real))
  :extrafuns ((x_88 Real))
  :extrafuns ((x_89 Real))
  :extrafuns ((x_90 Real))
  :extrafuns ((x_91 Real))
  :formula
(flet ($cvcl_123 (not x_60)) (flet ($cvcl_124 (not x_61)) (flet ($cvcl_125 (and $cvcl_123 $cvcl_124)) (flet ($cvcl_113 (not x_62)) (flet ($cvcl_114 (not x_63)) (flet ($cvcl_115 (and $cvcl_113 $cvcl_114)) (flet ($cvcl_63 (not x_66)) (flet ($cvcl_64 (not x_67)) (flet ($cvcl_65 (and $cvcl_63 $cvcl_64)) (flet ($cvcl_50 (not x_68)) (flet ($cvcl_51 (not x_69)) (flet ($cvcl_53 (and $cvcl_50 $cvcl_51)) (flet ($cvcl_18 (not x_70)) (flet ($cvcl_19 (not x_71)) (flet ($cvcl_20 (and $cvcl_18 $cvcl_19)) (flet ($cvcl_73 (not x_72)) (flet ($cvcl_74 (not x_73)) (flet ($cvcl_75 (and $cvcl_73 $cvcl_74)) (flet ($cvcl_103 (not x_74)) (flet ($cvcl_104 (not x_75)) (flet ($cvcl_105 (and $cvcl_103 $cvcl_104)) (flet ($cvcl_93 (not x_76)) (flet ($cvcl_94 (not x_77)) (flet ($cvcl_95 (and $cvcl_93 $cvcl_94)) (flet ($cvcl_83 (not x_78)) (flet ($cvcl_84 (not x_79)) (flet ($cvcl_85 (and $cvcl_83 $cvcl_84)) (flet ($cvcl_80 (not x_46)) (flet ($cvcl_81 (and $cvcl_80 x_47)) (flet ($cvcl_31 (and (iff x_74 x_42) (iff x_75 x_43))) (flet ($cvcl_110 (not x_30)) (flet ($cvcl_111 (and $cvcl_110 x_31)) (flet ($cvcl_120 (not x_28)) (flet ($cvcl_119 (not x_29)) (flet ($cvcl_116 (and $cvcl_120 $cvcl_119)) (flet ($cvcl_13 (and (iff x_70 x_38) (iff x_71 x_39))) (flet ($cvcl_100 (not x_42)) (flet ($cvcl_101 (and $cvcl_100 x_43)) (flet ($cvcl_27 (and (iff x_78 x_46) (iff x_79 x_47))) (flet ($cvcl_60 (not x_34)) (flet ($cvcl_59 (not x_35)) (flet ($cvcl_56 (and $cvcl_60 $cvcl_59)) (flet ($cvcl_15 (not x_38)) (flet ($cvcl_16 (and $cvcl_15 x_39)) (flet ($cvcl_90 (not x_44)) (flet ($cvcl_91 (and $cvcl_90 x_45)) (flet ($cvcl_109 (not x_31)) (flet ($cvcl_106 (and $cvcl_110 $cvcl_109)) (flet ($cvcl_23 (and (iff x_66 x_34) (iff x_67 x_35))) (flet ($cvcl_89 (not x_45)) (flet ($cvcl_86 (and $cvcl_90 $cvcl_89)) (flet ($cvcl_25 (and (iff x_72 x_40) (iff x_73 x_41))) (flet ($cvcl_79 (not x_47)) (flet ($cvcl_76 (and $cvcl_80 $cvcl_79)) (flet ($cvcl_46 (not x_36)) (flet ($cvcl_44 (not x_37)) (flet ($cvcl_39 (and $cvcl_46 $cvcl_44)) (flet ($cvcl_14 (not x_39)) (flet ($cvcl_9 (and $cvcl_15 $cvcl_14)) (flet ($cvcl_35 (and (iff x_60 x_28) (iff x_61 x_29))) (flet ($cvcl_33 (and (iff x_62 x_30) (iff x_63 x_31))) (flet ($cvcl_70 (not x_40)) (flet ($cvcl_69 (not x_41)) (flet ($cvcl_66 (and $cvcl_70 $cvcl_69)) (flet ($cvcl_48 (and $cvcl_46 x_37)) (flet ($cvcl_99 (not x_43)) (flet ($cvcl_96 (and $cvcl_100 $cvcl_99)) (flet ($cvcl_61 (and $cvcl_60 x_35)) (flet ($cvcl_71 (and $cvcl_70 x_41)) (flet ($cvcl_29 (and (iff x_76 x_44) (iff x_77 x_45))) (flet ($cvcl_21 (and (iff x_68 x_36) (iff x_69 x_37))) (flet ($cvcl_121 (and $cvcl_120 x_29)) (flet ($cvcl_202 (not x_8)) (flet ($cvcl_203 (and $cvcl_202 x_9)) (flet ($cvcl_163 (and (iff x_42 x_12) (iff x_43 x_13))) (flet ($cvcl_223 (not x_14)) (flet ($cvcl_224 (and $cvcl_223 x_15)) (flet ($cvcl_230 (not x_16)) (flet ($cvcl_229 (not x_17)) (flet ($cvcl_226 (and $cvcl_230 $cvcl_229)) (flet ($cvcl_148 (and (iff x_38 x_0) (iff x_39 x_1))) (flet ($cvcl_216 (not x_12)) (flet ($cvcl_217 (and $cvcl_216 x_13)) (flet ($cvcl_159 (and (iff x_46 x_8) (iff x_47 x_9))) (flet ($cvcl_188 (not x_4)) (flet ($cvcl_187 (not x_5)) (flet ($cvcl_184 (and $cvcl_188 $cvcl_187)) (flet ($cvcl_150 (not x_0)) (flet ($cvcl_151 (and $cvcl_150 x_1)) (flet ($cvcl_209 (not x_10)) (flet ($cvcl_210 (and $cvcl_209 x_11)) (flet ($cvcl_222 (not x_15)) (flet ($cvcl_219 (and $cvcl_223 $cvcl_222)) (flet ($cvcl_155 (and (iff x_34 x_4) (iff x_35 x_5))) (flet ($cvcl_208 (not x_11)) (flet ($cvcl_205 (and $cvcl_209 $cvcl_208)) (flet ($cvcl_157 (and (iff x_40 x_6) (iff x_41 x_7))) (flet ($cvcl_201 (not x_9)) (flet ($cvcl_198 (and $cvcl_202 $cvcl_201)) (flet ($cvcl_178 (not x_2)) (flet ($cvcl_176 (not x_3)) (flet ($cvcl_170 (and $cvcl_178 $cvcl_176)) (flet ($cvcl_149 (not x_1)) (flet ($cvcl_143 (and $cvcl_150 $cvcl_149)) (flet ($cvcl_167 (and (iff x_28 x_16) (iff x_29 x_17))) (flet ($cvcl_165 (and (iff x_30 x_14) (iff x_31 x_15))) (flet ($cvcl_195 (not x_6)) (flet ($cvcl_194 (not x_7)) (flet ($cvcl_191 (and $cvcl_195 $cvcl_194)) (flet ($cvcl_180 (and $cvcl_178 x_3)) (flet ($cvcl_215 (not x_13)) (flet ($cvcl_212 (and $cvcl_216 $cvcl_215)) (flet ($cvcl_189 (and $cvcl_188 x_5)) (flet ($cvcl_196 (and $cvcl_195 x_7)) (flet ($cvcl_161 (and (iff x_44 x_10) (iff x_45 x_11))) (flet ($cvcl_153 (and (iff x_36 x_2) (iff x_37 x_3))) (flet ($cvcl_231 (and $cvcl_230 x_17)) (flet ($cvcl_141 (< (- cvclZero x_18) 0)) (flet ($cvcl_140 (< (- cvclZero x_19) 0)) (flet ($cvcl_139 (< (- cvclZero x_20) 0)) (flet ($cvcl_138 (< (- cvclZero x_21) 0)) (flet ($cvcl_137 (< (- cvclZero x_22) 0)) (flet ($cvcl_136 (< (- cvclZero x_23) 0)) (flet ($cvcl_135 (< (- cvclZero x_24) 0)) (flet ($cvcl_134 (< (- cvclZero x_25) 0)) (flet ($cvcl_133 (< (- cvclZero x_26) 0)) (flet ($cvcl_144 (= (- x_27 cvclZero) 0)) (flet ($cvcl_0 (< (- x_49 x_53) 0)) (flet ($cvcl_1 (if_then_else $cvcl_0 (< (- x_49 x_48) 0) (< (- x_53 x_48) 0))) (flet ($cvcl_2 (if_then_else $cvcl_1 (if_then_else $cvcl_0 (< (- x_49 x_50) 0) (< (- x_53 x_50) 0)) (< (- x_48 x_50) 0))) (flet ($cvcl_3 (if_then_else $cvcl_2 (if_then_else $cvcl_1 (if_then_else $cvcl_0 (< (- x_49 x_52) 0) (< (- x_53 x_52) 0)) (< (- x_48 x_52) 0)) (< (- x_50 x_52) 0))) (flet ($cvcl_4 (if_then_else $cvcl_3 (if_then_else $cvcl_2 (if_then_else $cvcl_1 (if_then_else $cvcl_0 (< (- x_49 x_51) 0) (< (- x_53 x_51) 0)) (< (- x_48 x_51) 0)) (< (- x_50 x_51) 0)) (< (- x_52 x_51) 0))) (flet ($cvcl_5 (if_then_else $cvcl_4 (if_then_else $cvcl_3 (if_then_else $cvcl_2 (if_then_else $cvcl_1 (if_then_else $cvcl_0 (< (- x_49 x_54) 0) (< (- x_53 x_54) 0)) (< (- x_48 x_54) 0)) (< (- x_50 x_54) 0)) (< (- x_52 x_54) 0)) (< (- x_51 x_54) 0))) (flet ($cvcl_6 (if_then_else $cvcl_5 (if_then_else $cvcl_4 (if_then_else $cvcl_3 (if_then_else $cvcl_2 (if_then_else $cvcl_1 (if_then_else $cvcl_0 (< (- x_49 x_56) 0) (< (- x_53 x_56) 0)) (< (- x_48 x_56) 0)) (< (- x_50 x_56) 0)) (< (- x_52 x_56) 0)) (< (- x_51 x_56) 0)) (< (- x_54 x_56) 0))) (flet ($cvcl_7 (if_then_else $cvcl_6 (if_then_else $cvcl_5 (if_then_else $cvcl_4 (if_then_else $cvcl_3 (if_then_else $cvcl_2 (if_then_else $cvcl_1 (if_then_else $cvcl_0 (< (- x_49 x_55) 0) (< (- x_53 x_55) 0)) (< (- x_48 x_55) 0)) (< (- x_50 x_55) 0)) (< (- x_52 x_55) 0)) (< (- x_51 x_55) 0)) (< (- x_54 x_55) 0)) (< (- x_56 x_55) 0))) (flet ($cvcl_55 (= (- x_87 x_55) 0)) (flet ($cvcl_22 (= (- x_88 x_56) 0)) (flet ($cvcl_24 (= (- x_86 x_54) 0)) (flet ($cvcl_26 (= (- x_83 x_51) 0)) (flet ($cvcl_28 (= (- x_84 x_52) 0)) (flet ($cvcl_30 (= (- x_82 x_50) 0)) (flet ($cvcl_32 (= (- x_80 x_48) 0)) (flet ($cvcl_34 (= (- x_85 x_53) 0)) (flet ($cvcl_36 (= (- x_81 x_49) 0)) (flet ($cvcl_8 (= (- x_65 x_33) 0)) (flet ($cvcl_37 (= (- x_64 cvclZero) 0)) (flet ($cvcl_10 (= (- x_58 x_55) 0)) (flet ($cvcl_11 (= (- x_33 cvclZero) 0)) (flet ($cvcl_12 (< (- x_58 x_87) 0)) (flet ($cvcl_38 (= (- x_64 cvclZero) 1)) (flet ($cvcl_41 (not $cvcl_11)) (flet ($cvcl_43 (= (- x_64 cvclZero) 2)) (flet ($cvcl_233 (= (- x_65 cvclZero) 1)) (flet ($cvcl_45 (= (- x_64 cvclZero) 3)) (flet ($cvcl_17 (= (- x_33 cvclZero) 1)) (flet ($cvcl_47 (= (- x_64 cvclZero) 4)) (flet ($cvcl_242 (not $cvcl_17)) (flet ($cvcl_52 (= (- x_64 cvclZero) 5)) (flet ($cvcl_54 (= (- x_65 cvclZero) 0)) (flet ($cvcl_40 (= (- x_58 x_56) 0)) (flet ($cvcl_42 (< (- x_58 x_88) 0)) (flet ($cvcl_234 (= (- x_65 cvclZero) 2)) (flet ($cvcl_49 (= (- x_33 cvclZero) 2)) (flet ($cvcl_243 (not $cvcl_49)) (flet ($cvcl_57 (= (- x_58 x_54) 0)) (flet ($cvcl_58 (< (- x_58 x_86) 0)) (flet ($cvcl_235 (= (- x_65 cvclZero) 3)) (flet ($cvcl_62 (= (- x_33 cvclZero) 3)) (flet ($cvcl_244 (not $cvcl_62)) (flet ($cvcl_67 (= (- x_58 x_51) 0)) (flet ($cvcl_68 (< (- x_58 x_83) 0)) (flet ($cvcl_236 (= (- x_65 cvclZero) 4)) (flet ($cvcl_72 (= (- x_33 cvclZero) 4)) (flet ($cvcl_245 (not $cvcl_72)) (flet ($cvcl_77 (= (- x_58 x_52) 0)) (flet ($cvcl_78 (< (- x_58 x_84) 0)) (flet ($cvcl_237 (= (- x_65 cvclZero) 5)) (flet ($cvcl_82 (= (- x_33 cvclZero) 5)) (flet ($cvcl_246 (not $cvcl_82)) (flet ($cvcl_87 (= (- x_58 x_50) 0)) (flet ($cvcl_88 (< (- x_58 x_82) 0)) (flet ($cvcl_238 (= (- x_65 cvclZero) 6)) (flet ($cvcl_92 (= (- x_33 cvclZero) 6)) (flet ($cvcl_247 (not $cvcl_92)) (flet ($cvcl_97 (= (- x_58 x_48) 0)) (flet ($cvcl_98 (< (- x_58 x_80) 0)) (flet ($cvcl_239 (= (- x_65 cvclZero) 7)) (flet ($cvcl_102 (= (- x_33 cvclZero) 7)) (flet ($cvcl_248 (not $cvcl_102)) (flet ($cvcl_107 (= (- x_58 x_53) 0)) (flet ($cvcl_108 (< (- x_58 x_85) 0)) (flet ($cvcl_240 (= (- x_65 cvclZero) 8)) (flet ($cvcl_112 (= (- x_33 cvclZero) 8)) (flet ($cvcl_249 (not $cvcl_112)) (flet ($cvcl_117 (= (- x_58 x_49) 0)) (flet ($cvcl_118 (< (- x_58 x_81) 0)) (flet ($cvcl_241 (= (- x_65 cvclZero) 9)) (flet ($cvcl_122 (= (- x_33 cvclZero) 9)) (flet ($cvcl_250 (not $cvcl_122)) (flet ($cvcl_126 (< (- x_26 x_25) 0)) (flet ($cvcl_127 (if_then_else $cvcl_126 (< (- x_26 x_24) 0) (< (- x_25 x_24) 0))) (flet ($cvcl_128 (if_then_else $cvcl_127 (if_then_else $cvcl_126 (< (- x_26 x_23) 0) (< (- x_25 x_23) 0)) (< (- x_24 x_23) 0))) (flet ($cvcl_129 (if_then_else $cvcl_128 (if_then_else $cvcl_127 (if_then_else $cvcl_126 (< (- x_26 x_22) 0) (< (- x_25 x_22) 0)) (< (- x_24 x_22) 0)) (< (- x_23 x_22) 0))) (flet ($cvcl_130 (if_then_else $cvcl_129 (if_then_else $cvcl_128 (if_then_else $cvcl_127 (if_then_else $cvcl_126 (< (- x_26 x_21) 0) (< (- x_25 x_21) 0)) (< (- x_24 x_21) 0)) (< (- x_23 x_21) 0)) (< (- x_22 x_21) 0))) (flet ($cvcl_131 (if_then_else $cvcl_130 (if_then_else $cvcl_129 (if_then_else $cvcl_128 (if_then_else $cvcl_127 (if_then_else $cvcl_126 (< (- x_26 x_20) 0) (< (- x_25 x_20) 0)) (< (- x_24 x_20) 0)) (< (- x_23 x_20) 0)) (< (- x_22 x_20) 0)) (< (- x_21 x_20) 0))) (flet ($cvcl_132 (if_then_else $cvcl_131 (if_then_else $cvcl_130 (if_then_else $cvcl_129 (if_then_else $cvcl_128 (if_then_else $cvcl_127 (if_then_else $cvcl_126 (< (- x_26 x_19) 0) (< (- x_25 x_19) 0)) (< (- x_24 x_19) 0)) (< (- x_23 x_19) 0)) (< (- x_22 x_19) 0)) (< (- x_21 x_19) 0)) (< (- x_20 x_19) 0))) (flet ($cvcl_142 (if_then_else $cvcl_132 (if_then_else $cvcl_131 (if_then_else $cvcl_130 (if_then_else $cvcl_129 (if_then_else $cvcl_128 (if_then_else $cvcl_127 (if_then_else $cvcl_126 (< (- x_26 x_18) 0) (< (- x_25 x_18) 0)) (< (- x_24 x_18) 0)) (< (- x_23 x_18) 0)) (< (- x_22 x_18) 0)) (< (- x_21 x_18) 0)) (< (- x_20 x_18) 0)) (< (- x_19 x_18) 0))) (flet ($cvcl_183 (= (- x_55 x_18) 0)) (flet ($cvcl_154 (= (- x_56 x_19) 0)) (flet ($cvcl_156 (= (- x_54 x_20) 0)) (flet ($cvcl_158 (= (- x_51 x_21) 0)) (flet ($cvcl_160 (= (- x_52 x_22) 0)) (flet ($cvcl_162 (= (- x_50 x_23) 0)) (flet ($cvcl_164 (= (- x_48 x_24) 0)) (flet ($cvcl_166 (= (- x_53 x_25) 0)) (flet ($cvcl_168 (= (- x_49 x_26) 0)) (flet ($cvcl_145 (= (- x_33 x_27) 0)) (flet ($cvcl_169 (= (- x_32 cvclZero) 0)) (flet ($cvcl_146 (= (- cvclZero x_18) 0)) (flet ($cvcl_147 (< (- cvclZero x_55) 0)) (flet ($cvcl_171 (= (- x_32 cvclZero) 1)) (flet ($cvcl_173 (not $cvcl_144)) (flet ($cvcl_175 (= (- x_32 cvclZero) 2)) (flet ($cvcl_177 (= (- x_32 cvclZero) 3)) (flet ($cvcl_152 (= (- x_27 cvclZero) 1)) (flet ($cvcl_179 (= (- x_32 cvclZero) 4)) (flet ($cvcl_251 (not $cvcl_152)) (flet ($cvcl_182 (= (- x_32 cvclZero) 5)) (flet ($cvcl_172 (= (- cvclZero x_19) 0)) (flet ($cvcl_174 (< (- cvclZero x_56) 0)) (flet ($cvcl_181 (= (- x_27 cvclZero) 2)) (flet ($cvcl_252 (not $cvcl_181)) (flet ($cvcl_185 (= (- cvclZero x_20) 0)) (flet ($cvcl_186 (< (- cvclZero x_54) 0)) (flet ($cvcl_190 (= (- x_27 cvclZero) 3)) (flet ($cvcl_253 (not $cvcl_190)) (flet ($cvcl_192 (= (- cvclZero x_21) 0)) (flet ($cvcl_193 (< (- cvclZero x_51) 0)) (flet ($cvcl_197 (= (- x_27 cvclZero) 4)) (flet ($cvcl_254 (not $cvcl_197)) (flet ($cvcl_199 (= (- cvclZero x_22) 0)) (flet ($cvcl_200 (< (- cvclZero x_52) 0)) (flet ($cvcl_204 (= (- x_27 cvclZero) 5)) (flet ($cvcl_255 (not $cvcl_204)) (flet ($cvcl_206 (= (- cvclZero x_23) 0)) (flet ($cvcl_207 (< (- cvclZero x_50) 0)) (flet ($cvcl_211 (= (- x_27 cvclZero) 6)) (flet ($cvcl_256 (not $cvcl_211)) (flet ($cvcl_213 (= (- cvclZero x_24) 0)) (flet ($cvcl_214 (< (- cvclZero x_48) 0)) (flet ($cvcl_218 (= (- x_27 cvclZero) 7)) (flet ($cvcl_257 (not $cvcl_218)) (flet ($cvcl_220 (= (- cvclZero x_25) 0)) (flet ($cvcl_221 (< (- cvclZero x_53) 0)) (flet ($cvcl_225 (= (- x_27 cvclZero) 8)) (flet ($cvcl_258 (not $cvcl_225)) (flet ($cvcl_227 (= (- cvclZero x_26) 0)) (flet ($cvcl_228 (< (- cvclZero x_49) 0)) (flet ($cvcl_232 (= (- x_27 cvclZero) 9)) (flet ($cvcl_259 (not $cvcl_232)) (and (and (and (and (and (and (and (and (and (and (and (and (and (and (and (and (and (and (and (and (and (and (and (and (and (and (and (not (< (- x_27 cvclZero) 0)) (<= (- x_27 cvclZero) 9)) (not (< (- x_33 cvclZero) 0))) (<= (- x_33 cvclZero) 9)) (not (< (- x_65 cvclZero) 0))) (<= (- x_65 cvclZero) 9)) $cvcl_143) $cvcl_170) $cvcl_184) $cvcl_191) $cvcl_198) $cvcl_205) $cvcl_212) $cvcl_219) $cvcl_226) $cvcl_141) $cvcl_140) $cvcl_139) $cvcl_138) $cvcl_137) $cvcl_136) $cvcl_135) $cvcl_134) $cvcl_133) $cvcl_144) (or (and (and (and (and (and (and (and (and (and (and (and (and (and (and (and (and (and (and (and (and (and (= (- x_89 cvclZero) 0) (if_then_else $cvcl_7 (if_then_else $cvcl_6 (if_then_else $cvcl_5 (if_then_else $cvcl_4 (if_then_else $cvcl_3 (if_then_else $cvcl_2 (if_then_else $cvcl_1 (if_then_else $cvcl_0 (< (- x_58 x_49) 0) (< (- x_58 x_53) 0)) (< (- x_58 x_48) 0)) (< (- x_58 x_50) 0)) (< (- x_58 x_52) 0)) (< (- x_58 x_51) 0)) (< (- x_58 x_54) 0)) (< (- x_58 x_56) 0)) (< (- x_58 x_55) 0))) (if_then_else $cvcl_7 (if_then_else $cvcl_6 (if_then_else $cvcl_5 (if_then_else $cvcl_4 (if_then_else $cvcl_3 (if_then_else $cvcl_2 (if_then_else $cvcl_1 (if_then_else $cvcl_0 (= (- x_90 x_49) 0) (= (- x_90 x_53) 0)) (= (- x_90 x_48) 0)) (= (- x_90 x_50) 0)) (= (- x_90 x_52) 0)) (= (- x_90 x_51) 0)) (= (- x_90 x_54) 0)) (= (- x_90 x_56) 0)) (= (- x_90 x_55) 0))) $cvcl_13) $cvcl_21) $cvcl_23) $cvcl_25) $cvcl_27) $cvcl_29) $cvcl_31) $cvcl_33) $cvcl_35) $cvcl_55) $cvcl_22) $cvcl_24) $cvcl_26) $cvcl_28) $cvcl_30) $cvcl_32) $cvcl_34) $cvcl_36) $cvcl_8)  (and (and (= (- x_89 cvclZero) 1) (or (or (or (or (or (or (or (or (and (and (and (and (and (and (and (and (and (and (and (and (and (and (and (and (and (= (- x_91 cvclZero) 1) (or (or (or (or (or (and (and (and (and (and (and (and (and $cvcl_37 $cvcl_9) $cvcl_10) $cvcl_11) x_70) $cvcl_19) $cvcl_12) (<= (- x_87 x_58) 2)) $cvcl_8)  (and (and (and (and (and (and $cvcl_38 $cvcl_9) $cvcl_10) $cvcl_41) $cvcl_12) $cvcl_8) $cvcl_13) )  (and (and (and (and (and (and (and $cvcl_43 x_38) $cvcl_14) $cvcl_10) $cvcl_18) x_71) $cvcl_233) (<= (- x_58 x_87) (~ 4))) )  (and (and (and (and (and (and (and $cvcl_45 $cvcl_16) $cvcl_10) $cvcl_17) x_70) x_71) $cvcl_12) $cvcl_8) )  (and (and (and (and (and (and $cvcl_47 $cvcl_16) $cvcl_10) $cvcl_242) $cvcl_20) $cvcl_12) $cvcl_8) )  (and (and (and (and (and (and $cvcl_52 x_38) x_39) $cvcl_10) $cvcl_20) $cvcl_54) $cvcl_12) )) $cvcl_21) $cvcl_22) $cvcl_23) $cvcl_24) $cvcl_25) $cvcl_26) $cvcl_27) $cvcl_28) $cvcl_29) $cvcl_30) $cvcl_31) $cvcl_32) $cvcl_33) $cvcl_34) $cvcl_35) $cvcl_36)  (and (and (and (and (and (and (and (and (and (and (and (and (and (and (and (and (and (= (- x_91 cvclZero) 2) (or (or (or (or (or (and (and (and (and (and (and (and (and $cvcl_37 $cvcl_39) $cvcl_40) $cvcl_11) x_68) $cvcl_51) $cvcl_42) (<= (- x_88 x_58) 2)) $cvcl_8)  (and (and (and (and (and (and $cvcl_38 $cvcl_39) $cvcl_40) $cvcl_41) $cvcl_42) $cvcl_8) $cvcl_21) )  (and (and (and (and (and (and (and $cvcl_43 x_36) $cvcl_44) $cvcl_40) $cvcl_50) x_69) $cvcl_234) (<= (- x_58 x_88) (~ 4))) )  (and (and (and (and (and (and (and $cvcl_45 $cvcl_48) $cvcl_40) $cvcl_49) x_68) x_69) $cvcl_42) $cvcl_8) )  (and (and (and (and (and (and $cvcl_47 $cvcl_48) $cvcl_40) $cvcl_243) $cvcl_53) $cvcl_42) $cvcl_8) )  (and (and (and (and (and (and $cvcl_52 x_36) x_37) $cvcl_40) $cvcl_53) $cvcl_54) $cvcl_42) )) $cvcl_13) $cvcl_55) $cvcl_23) $cvcl_24) $cvcl_25) $cvcl_26) $cvcl_27) $cvcl_28) $cvcl_29) $cvcl_30) $cvcl_31) $cvcl_32) $cvcl_33) $cvcl_34) $cvcl_35) $cvcl_36) )  (and (and (and (and (and (and (and (and (and (and (and (and (and (and (and (and (and (= (- x_91 cvclZero) 3) (or (or (or (or (or (and (and (and (and (and (and (and (and $cvcl_37 $cvcl_56) $cvcl_57) $cvcl_11) x_66) $cvcl_64) $cvcl_58) (<= (- x_86 x_58) 2)) $cvcl_8)  (and (and (and (and (and (and $cvcl_38 $cvcl_56) $cvcl_57) $cvcl_41) $cvcl_58) $cvcl_8) $cvcl_23) )  (and (and (and (and (and (and (and $cvcl_43 x_34) $cvcl_59) $cvcl_57) $cvcl_63) x_67) $cvcl_235) (<= (- x_58 x_86) (~ 4))) )  (and (and (and (and (and (and (and $cvcl_45 $cvcl_61) $cvcl_57) $cvcl_62) x_66) x_67) $cvcl_58) $cvcl_8) )  (and (and (and (and (and (and $cvcl_47 $cvcl_61) $cvcl_57) $cvcl_244) $cvcl_65) $cvcl_58) $cvcl_8) )  (and (and (and (and (and (and $cvcl_52 x_34) x_35) $cvcl_57) $cvcl_65) $cvcl_54) $cvcl_58) )) $cvcl_13) $cvcl_55) $cvcl_21) $cvcl_22) $cvcl_25) $cvcl_26) $cvcl_27) $cvcl_28) $cvcl_29) $cvcl_30) $cvcl_31) $cvcl_32) $cvcl_33) $cvcl_34) $cvcl_35) $cvcl_36) )  (and (and (and (and (and (and (and (and (and (and (and (and (and (and (and (and (and (= (- x_91 cvclZero) 4) (or (or (or (or (or (and (and (and (and (and (and (and (and $cvcl_37 $cvcl_66) $cvcl_67) $cvcl_11) x_72) $cvcl_74) $cvcl_68) (<= (- x_83 x_58) 2)) $cvcl_8)  (and (and (and (and (and (and $cvcl_38 $cvcl_66) $cvcl_67) $cvcl_41) $cvcl_68) $cvcl_8) $cvcl_25) )  (and (and (and (and (and (and (and $cvcl_43 x_40) $cvcl_69) $cvcl_67) $cvcl_73) x_73) $cvcl_236) (<= (- x_58 x_83) (~ 4))) )  (and (and (and (and (and (and (and $cvcl_45 $cvcl_71) $cvcl_67) $cvcl_72) x_72) x_73) $cvcl_68) $cvcl_8) )  (and (and (and (and (and (and $cvcl_47 $cvcl_71) $cvcl_67) $cvcl_245) $cvcl_75) $cvcl_68) $cvcl_8) )  (and (and (and (and (and (and $cvcl_52 x_40) x_41) $cvcl_67) $cvcl_75) $cvcl_54) $cvcl_68) )) $cvcl_13) $cvcl_55) $cvcl_21) $cvcl_22) $cvcl_23) $cvcl_24) $cvcl_27) $cvcl_28) $cvcl_29) $cvcl_30) $cvcl_31) $cvcl_32) $cvcl_33) $cvcl_34) $cvcl_35) $cvcl_36) )  (and (and (and (and (and (and (and (and (and (and (and (and (and (and (and (and (and (= (- x_91 cvclZero) 5) (or (or (or (or (or (and (and (and (and (and (and (and (and $cvcl_37 $cvcl_76) $cvcl_77) $cvcl_11) x_78) $cvcl_84) $cvcl_78) (<= (- x_84 x_58) 2)) $cvcl_8)  (and (and (and (and (and (and $cvcl_38 $cvcl_76) $cvcl_77) $cvcl_41) $cvcl_78) $cvcl_8) $cvcl_27) )  (and (and (and (and (and (and (and $cvcl_43 x_46) $cvcl_79) $cvcl_77) $cvcl_83) x_79) $cvcl_237) (<= (- x_58 x_84) (~ 4))) )  (and (and (and (and (and (and (and $cvcl_45 $cvcl_81) $cvcl_77) $cvcl_82) x_78) x_79) $cvcl_78) $cvcl_8) )  (and (and (and (and (and (and $cvcl_47 $cvcl_81) $cvcl_77) $cvcl_246) $cvcl_85) $cvcl_78) $cvcl_8) )  (and (and (and (and (and (and $cvcl_52 x_46) x_47) $cvcl_77) $cvcl_85) $cvcl_54) $cvcl_78) )) $cvcl_13) $cvcl_55) $cvcl_21) $cvcl_22) $cvcl_23) $cvcl_24) $cvcl_25) $cvcl_26) $cvcl_29) $cvcl_30) $cvcl_31) $cvcl_32) $cvcl_33) $cvcl_34) $cvcl_35) $cvcl_36) )  (and (and (and (and (and (and (and (and (and (and (and (and (and (and (and (and (and (= (- x_91 cvclZero) 6) (or (or (or (or (or (and (and (and (and (and (and (and (and $cvcl_37 $cvcl_86) $cvcl_87) $cvcl_11) x_76) $cvcl_94) $cvcl_88) (<= (- x_82 x_58) 2)) $cvcl_8)  (and (and (and (and (and (and $cvcl_38 $cvcl_86) $cvcl_87) $cvcl_41) $cvcl_88) $cvcl_8) $cvcl_29) )  (and (and (and (and (and (and (and $cvcl_43 x_44) $cvcl_89) $cvcl_87) $cvcl_93) x_77) $cvcl_238) (<= (- x_58 x_82) (~ 4))) )  (and (and (and (and (and (and (and $cvcl_45 $cvcl_91) $cvcl_87) $cvcl_92) x_76) x_77) $cvcl_88) $cvcl_8) )  (and (and (and (and (and (and $cvcl_47 $cvcl_91) $cvcl_87) $cvcl_247) $cvcl_95) $cvcl_88) $cvcl_8) )  (and (and (and (and (and (and $cvcl_52 x_44) x_45) $cvcl_87) $cvcl_95) $cvcl_54) $cvcl_88) )) $cvcl_13) $cvcl_55) $cvcl_21) $cvcl_22) $cvcl_23) $cvcl_24) $cvcl_25) $cvcl_26) $cvcl_27) $cvcl_28) $cvcl_31) $cvcl_32) $cvcl_33) $cvcl_34) $cvcl_35) $cvcl_36) )  (and (and (and (and (and (and (and (and (and (and (and (and (and (and (and (and (and (= (- x_91 cvclZero) 7) (or (or (or (or (or (and (and (and (and (and (and (and (and $cvcl_37 $cvcl_96) $cvcl_97) $cvcl_11) x_74) $cvcl_104) $cvcl_98) (<= (- x_80 x_58) 2)) $cvcl_8)  (and (and (and (and (and (and $cvcl_38 $cvcl_96) $cvcl_97) $cvcl_41) $cvcl_98) $cvcl_8) $cvcl_31) )  (and (and (and (and (and (and (and $cvcl_43 x_42) $cvcl_99) $cvcl_97) $cvcl_103) x_75) $cvcl_239) (<= (- x_58 x_80) (~ 4))) )  (and (and (and (and (and (and (and $cvcl_45 $cvcl_101) $cvcl_97) $cvcl_102) x_74) x_75) $cvcl_98) $cvcl_8) )  (and (and (and (and (and (and $cvcl_47 $cvcl_101) $cvcl_97) $cvcl_248) $cvcl_105) $cvcl_98) $cvcl_8) )  (and (and (and (and (and (and $cvcl_52 x_42) x_43) $cvcl_97) $cvcl_105) $cvcl_54) $cvcl_98) )) $cvcl_13) $cvcl_55) $cvcl_21) $cvcl_22) $cvcl_23) $cvcl_24) $cvcl_25) $cvcl_26) $cvcl_27) $cvcl_28) $cvcl_29) $cvcl_30) $cvcl_33) $cvcl_34) $cvcl_35) $cvcl_36) )  (and (and (and (and (and (and (and (and (and (and (and (and (and (and (and (and (and (= (- x_91 cvclZero) 8) (or (or (or (or (or (and (and (and (and (and (and (and (and $cvcl_37 $cvcl_106) $cvcl_107) $cvcl_11) x_62) $cvcl_114) $cvcl_108) (<= (- x_85 x_58) 2)) $cvcl_8)  (and (and (and (and (and (and $cvcl_38 $cvcl_106) $cvcl_107) $cvcl_41) $cvcl_108) $cvcl_8) $cvcl_33) )  (and (and (and (and (and (and (and $cvcl_43 x_30) $cvcl_109) $cvcl_107) $cvcl_113) x_63) $cvcl_240) (<= (- x_58 x_85) (~ 4))) )  (and (and (and (and (and (and (and $cvcl_45 $cvcl_111) $cvcl_107) $cvcl_112) x_62) x_63) $cvcl_108) $cvcl_8) )  (and (and (and (and (and (and $cvcl_47 $cvcl_111) $cvcl_107) $cvcl_249) $cvcl_115) $cvcl_108) $cvcl_8) )  (and (and (and (and (and (and $cvcl_52 x_30) x_31) $cvcl_107) $cvcl_115) $cvcl_54) $cvcl_108) )) $cvcl_13) $cvcl_55) $cvcl_21) $cvcl_22) $cvcl_23) $cvcl_24) $cvcl_25) $cvcl_26) $cvcl_27) $cvcl_28) $cvcl_29) $cvcl_30) $cvcl_31) $cvcl_32) $cvcl_35) $cvcl_36) )  (and (and (and (and (and (and (and (and (and (and (and (and (and (and (and (and (and (= (- x_91 cvclZero) 9) (or (or (or (or (or (and (and (and (and (and (and (and (and $cvcl_37 $cvcl_116) $cvcl_117) $cvcl_11) x_60) $cvcl_124) $cvcl_118) (<= (- x_81 x_58) 2)) $cvcl_8)  (and (and (and (and (and (and $cvcl_38 $cvcl_116) $cvcl_117) $cvcl_41) $cvcl_118) $cvcl_8) $cvcl_35) )  (and (and (and (and (and (and (and $cvcl_43 x_28) $cvcl_119) $cvcl_117) $cvcl_123) x_61) $cvcl_241) (<= (- x_58 x_81) (~ 4))) )  (and (and (and (and (and (and (and $cvcl_45 $cvcl_121) $cvcl_117) $cvcl_122) x_60) x_61) $cvcl_118) $cvcl_8) )  (and (and (and (and (and (and $cvcl_47 $cvcl_121) $cvcl_117) $cvcl_250) $cvcl_125) $cvcl_118) $cvcl_8) )  (and (and (and (and (and (and $cvcl_52 x_28) x_29) $cvcl_117) $cvcl_125) $cvcl_54) $cvcl_118) )) $cvcl_13) $cvcl_55) $cvcl_21) $cvcl_22) $cvcl_23) $cvcl_24) $cvcl_25) $cvcl_26) $cvcl_27) $cvcl_28) $cvcl_29) $cvcl_30) $cvcl_31) $cvcl_32) $cvcl_33) $cvcl_34) )) (= (- x_90 x_58) 0)) )) (or (and (and (and (and (and (and (and (and (and (and (and (and (and (and (and (and (and (and (and (and (and (= (- x_57 cvclZero) 0) (if_then_else $cvcl_142 (if_then_else $cvcl_132 (if_then_else $cvcl_131 (if_then_else $cvcl_130 (if_then_else $cvcl_129 (if_then_else $cvcl_128 (if_then_else $cvcl_127 (if_then_else $cvcl_126 $cvcl_133 $cvcl_134) $cvcl_135) $cvcl_136) $cvcl_137) $cvcl_138) $cvcl_139) $cvcl_140) $cvcl_141)) (if_then_else $cvcl_142 (if_then_else $cvcl_132 (if_then_else $cvcl_131 (if_then_else $cvcl_130 (if_then_else $cvcl_129 (if_then_else $cvcl_128 (if_then_else $cvcl_127 (if_then_else $cvcl_126 (= (- x_58 x_26) 0) (= (- x_58 x_25) 0)) (= (- x_58 x_24) 0)) (= (- x_58 x_23) 0)) (= (- x_58 x_22) 0)) (= (- x_58 x_21) 0)) (= (- x_58 x_20) 0)) (= (- x_58 x_19) 0)) (= (- x_58 x_18) 0))) $cvcl_148) $cvcl_153) $cvcl_155) $cvcl_157) $cvcl_159) $cvcl_161) $cvcl_163) $cvcl_165) $cvcl_167) $cvcl_183) $cvcl_154) $cvcl_156) $cvcl_158) $cvcl_160) $cvcl_162) $cvcl_164) $cvcl_166) $cvcl_168) $cvcl_145)  (and (and (= (- x_57 cvclZero) 1) (or (or (or (or (or (or (or (or (and (and (and (and (and (and (and (and (and (and (and (and (and (and (and (and (and (= (- x_59 cvclZero) 1) (or (or (or (or (or (and (and (and (and (and (and (and (and $cvcl_169 $cvcl_143) $cvcl_146) $cvcl_144) x_38) $cvcl_14) $cvcl_147) (<= (- x_55 cvclZero) 2)) $cvcl_145)  (and (and (and (and (and (and $cvcl_171 $cvcl_143) $cvcl_146) $cvcl_173) $cvcl_147) $cvcl_145) $cvcl_148) )  (and (and (and (and (and (and (and $cvcl_175 x_0) $cvcl_149) $cvcl_146) $cvcl_15) x_39) $cvcl_17) (<= (- cvclZero x_55) (~ 4))) )  (and (and (and (and (and (and (and $cvcl_177 $cvcl_151) $cvcl_146) $cvcl_152) x_38) x_39) $cvcl_147) $cvcl_145) )  (and (and (and (and (and (and $cvcl_179 $cvcl_151) $cvcl_146) $cvcl_251) $cvcl_9) $cvcl_147) $cvcl_145) )  (and (and (and (and (and (and $cvcl_182 x_0) x_1) $cvcl_146) $cvcl_9) $cvcl_11) $cvcl_147) )) $cvcl_153) $cvcl_154) $cvcl_155) $cvcl_156) $cvcl_157) $cvcl_158) $cvcl_159) $cvcl_160) $cvcl_161) $cvcl_162) $cvcl_163) $cvcl_164) $cvcl_165) $cvcl_166) $cvcl_167) $cvcl_168)  (and (and (and (and (and (and (and (and (and (and (and (and (and (and (and (and (and (= (- x_59 cvclZero) 2) (or (or (or (or (or (and (and (and (and (and (and (and (and $cvcl_169 $cvcl_170) $cvcl_172) $cvcl_144) x_36) $cvcl_44) $cvcl_174) (<= (- x_56 cvclZero) 2)) $cvcl_145)  (and (and (and (and (and (and $cvcl_171 $cvcl_170) $cvcl_172) $cvcl_173) $cvcl_174) $cvcl_145) $cvcl_153) )  (and (and (and (and (and (and (and $cvcl_175 x_2) $cvcl_176) $cvcl_172) $cvcl_46) x_37) $cvcl_49) (<= (- cvclZero x_56) (~ 4))) )  (and (and (and (and (and (and (and $cvcl_177 $cvcl_180) $cvcl_172) $cvcl_181) x_36) x_37) $cvcl_174) $cvcl_145) )  (and (and (and (and (and (and $cvcl_179 $cvcl_180) $cvcl_172) $cvcl_252) $cvcl_39) $cvcl_174) $cvcl_145) )  (and (and (and (and (and (and $cvcl_182 x_2) x_3) $cvcl_172) $cvcl_39) $cvcl_11) $cvcl_174) )) $cvcl_148) $cvcl_183) $cvcl_155) $cvcl_156) $cvcl_157) $cvcl_158) $cvcl_159) $cvcl_160) $cvcl_161) $cvcl_162) $cvcl_163) $cvcl_164) $cvcl_165) $cvcl_166) $cvcl_167) $cvcl_168) )  (and (and (and (and (and (and (and (and (and (and (and (and (and (and (and (and (and (= (- x_59 cvclZero) 3) (or (or (or (or (or (and (and (and (and (and (and (and (and $cvcl_169 $cvcl_184) $cvcl_185) $cvcl_144) x_34) $cvcl_59) $cvcl_186) (<= (- x_54 cvclZero) 2)) $cvcl_145)  (and (and (and (and (and (and $cvcl_171 $cvcl_184) $cvcl_185) $cvcl_173) $cvcl_186) $cvcl_145) $cvcl_155) )  (and (and (and (and (and (and (and $cvcl_175 x_4) $cvcl_187) $cvcl_185) $cvcl_60) x_35) $cvcl_62) (<= (- cvclZero x_54) (~ 4))) )  (and (and (and (and (and (and (and $cvcl_177 $cvcl_189) $cvcl_185) $cvcl_190) x_34) x_35) $cvcl_186) $cvcl_145) )  (and (and (and (and (and (and $cvcl_179 $cvcl_189) $cvcl_185) $cvcl_253) $cvcl_56) $cvcl_186) $cvcl_145) )  (and (and (and (and (and (and $cvcl_182 x_4) x_5) $cvcl_185) $cvcl_56) $cvcl_11) $cvcl_186) )) $cvcl_148) $cvcl_183) $cvcl_153) $cvcl_154) $cvcl_157) $cvcl_158) $cvcl_159) $cvcl_160) $cvcl_161) $cvcl_162) $cvcl_163) $cvcl_164) $cvcl_165) $cvcl_166) $cvcl_167) $cvcl_168) )  (and (and (and (and (and (and (and (and (and (and (and (and (and (and (and (and (and (= (- x_59 cvclZero) 4) (or (or (or (or (or (and (and (and (and (and (and (and (and $cvcl_169 $cvcl_191) $cvcl_192) $cvcl_144) x_40) $cvcl_69) $cvcl_193) (<= (- x_51 cvclZero) 2)) $cvcl_145)  (and (and (and (and (and (and $cvcl_171 $cvcl_191) $cvcl_192) $cvcl_173) $cvcl_193) $cvcl_145) $cvcl_157) )  (and (and (and (and (and (and (and $cvcl_175 x_6) $cvcl_194) $cvcl_192) $cvcl_70) x_41) $cvcl_72) (<= (- cvclZero x_51) (~ 4))) )  (and (and (and (and (and (and (and $cvcl_177 $cvcl_196) $cvcl_192) $cvcl_197) x_40) x_41) $cvcl_193) $cvcl_145) )  (and (and (and (and (and (and $cvcl_179 $cvcl_196) $cvcl_192) $cvcl_254) $cvcl_66) $cvcl_193) $cvcl_145) )  (and (and (and (and (and (and $cvcl_182 x_6) x_7) $cvcl_192) $cvcl_66) $cvcl_11) $cvcl_193) )) $cvcl_148) $cvcl_183) $cvcl_153) $cvcl_154) $cvcl_155) $cvcl_156) $cvcl_159) $cvcl_160) $cvcl_161) $cvcl_162) $cvcl_163) $cvcl_164) $cvcl_165) $cvcl_166) $cvcl_167) $cvcl_168) )  (and (and (and (and (and (and (and (and (and (and (and (and (and (and (and (and (and (= (- x_59 cvclZero) 5) (or (or (or (or (or (and (and (and (and (and (and (and (and $cvcl_169 $cvcl_198) $cvcl_199) $cvcl_144) x_46) $cvcl_79) $cvcl_200) (<= (- x_52 cvclZero) 2)) $cvcl_145)  (and (and (and (and (and (and $cvcl_171 $cvcl_198) $cvcl_199) $cvcl_173) $cvcl_200) $cvcl_145) $cvcl_159) )  (and (and (and (and (and (and (and $cvcl_175 x_8) $cvcl_201) $cvcl_199) $cvcl_80) x_47) $cvcl_82) (<= (- cvclZero x_52) (~ 4))) )  (and (and (and (and (and (and (and $cvcl_177 $cvcl_203) $cvcl_199) $cvcl_204) x_46) x_47) $cvcl_200) $cvcl_145) )  (and (and (and (and (and (and $cvcl_179 $cvcl_203) $cvcl_199) $cvcl_255) $cvcl_76) $cvcl_200) $cvcl_145) )  (and (and (and (and (and (and $cvcl_182 x_8) x_9) $cvcl_199) $cvcl_76) $cvcl_11) $cvcl_200) )) $cvcl_148) $cvcl_183) $cvcl_153) $cvcl_154) $cvcl_155) $cvcl_156) $cvcl_157) $cvcl_158) $cvcl_161) $cvcl_162) $cvcl_163) $cvcl_164) $cvcl_165) $cvcl_166) $cvcl_167) $cvcl_168) )  (and (and (and (and (and (and (and (and (and (and (and (and (and (and (and (and (and (= (- x_59 cvclZero) 6) (or (or (or (or (or (and (and (and (and (and (and (and (and $cvcl_169 $cvcl_205) $cvcl_206) $cvcl_144) x_44) $cvcl_89) $cvcl_207) (<= (- x_50 cvclZero) 2)) $cvcl_145)  (and (and (and (and (and (and $cvcl_171 $cvcl_205) $cvcl_206) $cvcl_173) $cvcl_207) $cvcl_145) $cvcl_161) )  (and (and (and (and (and (and (and $cvcl_175 x_10) $cvcl_208) $cvcl_206) $cvcl_90) x_45) $cvcl_92) (<= (- cvclZero x_50) (~ 4))) )  (and (and (and (and (and (and (and $cvcl_177 $cvcl_210) $cvcl_206) $cvcl_211) x_44) x_45) $cvcl_207) $cvcl_145) )  (and (and (and (and (and (and $cvcl_179 $cvcl_210) $cvcl_206) $cvcl_256) $cvcl_86) $cvcl_207) $cvcl_145) )  (and (and (and (and (and (and $cvcl_182 x_10) x_11) $cvcl_206) $cvcl_86) $cvcl_11) $cvcl_207) )) $cvcl_148) $cvcl_183) $cvcl_153) $cvcl_154) $cvcl_155) $cvcl_156) $cvcl_157) $cvcl_158) $cvcl_159) $cvcl_160) $cvcl_163) $cvcl_164) $cvcl_165) $cvcl_166) $cvcl_167) $cvcl_168) )  (and (and (and (and (and (and (and (and (and (and (and (and (and (and (and (and (and (= (- x_59 cvclZero) 7) (or (or (or (or (or (and (and (and (and (and (and (and (and $cvcl_169 $cvcl_212) $cvcl_213) $cvcl_144) x_42) $cvcl_99) $cvcl_214) (<= (- x_48 cvclZero) 2)) $cvcl_145)  (and (and (and (and (and (and $cvcl_171 $cvcl_212) $cvcl_213) $cvcl_173) $cvcl_214) $cvcl_145) $cvcl_163) )  (and (and (and (and (and (and (and $cvcl_175 x_12) $cvcl_215) $cvcl_213) $cvcl_100) x_43) $cvcl_102) (<= (- cvclZero x_48) (~ 4))) )  (and (and (and (and (and (and (and $cvcl_177 $cvcl_217) $cvcl_213) $cvcl_218) x_42) x_43) $cvcl_214) $cvcl_145) )  (and (and (and (and (and (and $cvcl_179 $cvcl_217) $cvcl_213) $cvcl_257) $cvcl_96) $cvcl_214) $cvcl_145) )  (and (and (and (and (and (and $cvcl_182 x_12) x_13) $cvcl_213) $cvcl_96) $cvcl_11) $cvcl_214) )) $cvcl_148) $cvcl_183) $cvcl_153) $cvcl_154) $cvcl_155) $cvcl_156) $cvcl_157) $cvcl_158) $cvcl_159) $cvcl_160) $cvcl_161) $cvcl_162) $cvcl_165) $cvcl_166) $cvcl_167) $cvcl_168) )  (and (and (and (and (and (and (and (and (and (and (and (and (and (and (and (and (and (= (- x_59 cvclZero) 8) (or (or (or (or (or (and (and (and (and (and (and (and (and $cvcl_169 $cvcl_219) $cvcl_220) $cvcl_144) x_30) $cvcl_109) $cvcl_221) (<= (- x_53 cvclZero) 2)) $cvcl_145)  (and (and (and (and (and (and $cvcl_171 $cvcl_219) $cvcl_220) $cvcl_173) $cvcl_221) $cvcl_145) $cvcl_165) )  (and (and (and (and (and (and (and $cvcl_175 x_14) $cvcl_222) $cvcl_220) $cvcl_110) x_31) $cvcl_112) (<= (- cvclZero x_53) (~ 4))) )  (and (and (and (and (and (and (and $cvcl_177 $cvcl_224) $cvcl_220) $cvcl_225) x_30) x_31) $cvcl_221) $cvcl_145) )  (and (and (and (and (and (and $cvcl_179 $cvcl_224) $cvcl_220) $cvcl_258) $cvcl_106) $cvcl_221) $cvcl_145) )  (and (and (and (and (and (and $cvcl_182 x_14) x_15) $cvcl_220) $cvcl_106) $cvcl_11) $cvcl_221) )) $cvcl_148) $cvcl_183) $cvcl_153) $cvcl_154) $cvcl_155) $cvcl_156) $cvcl_157) $cvcl_158) $cvcl_159) $cvcl_160) $cvcl_161) $cvcl_162) $cvcl_163) $cvcl_164) $cvcl_167) $cvcl_168) )  (and (and (and (and (and (and (and (and (and (and (and (and (and (and (and (and (and (= (- x_59 cvclZero) 9) (or (or (or (or (or (and (and (and (and (and (and (and (and $cvcl_169 $cvcl_226) $cvcl_227) $cvcl_144) x_28) $cvcl_119) $cvcl_228) (<= (- x_49 cvclZero) 2)) $cvcl_145)  (and (and (and (and (and (and $cvcl_171 $cvcl_226) $cvcl_227) $cvcl_173) $cvcl_228) $cvcl_145) $cvcl_167) )  (and (and (and (and (and (and (and $cvcl_175 x_16) $cvcl_229) $cvcl_227) $cvcl_120) x_29) $cvcl_122) (<= (- cvclZero x_49) (~ 4))) )  (and (and (and (and (and (and (and $cvcl_177 $cvcl_231) $cvcl_227) $cvcl_232) x_28) x_29) $cvcl_228) $cvcl_145) )  (and (and (and (and (and (and $cvcl_179 $cvcl_231) $cvcl_227) $cvcl_259) $cvcl_116) $cvcl_228) $cvcl_145) )  (and (and (and (and (and (and $cvcl_182 x_16) x_17) $cvcl_227) $cvcl_116) $cvcl_11) $cvcl_228) )) $cvcl_148) $cvcl_183) $cvcl_153) $cvcl_154) $cvcl_155) $cvcl_156) $cvcl_157) $cvcl_158) $cvcl_159) $cvcl_160) $cvcl_161) $cvcl_162) $cvcl_163) $cvcl_164) $cvcl_165) $cvcl_166) )) (= (- x_58 cvclZero) 0)) )) (or (or (or (or (or (or (or (or (or (or (or (or (or (or (or (or (or (or (or (or (or (or (or (or (or (or (and (and x_70 x_71) (not $cvcl_233))  (and (and x_68 x_69) (not $cvcl_234)) )  (and (and x_66 x_67) (not $cvcl_235)) )  (and (and x_72 x_73) (not $cvcl_236)) )  (and (and x_78 x_79) (not $cvcl_237)) )  (and (and x_76 x_77) (not $cvcl_238)) )  (and (and x_74 x_75) (not $cvcl_239)) )  (and (and x_62 x_63) (not $cvcl_240)) )  (and (and x_60 x_61) (not $cvcl_241)) )  (and (and x_38 x_39) $cvcl_242) )  (and (and x_36 x_37) $cvcl_243) )  (and (and x_34 x_35) $cvcl_244) )  (and (and x_40 x_41) $cvcl_245) )  (and (and x_46 x_47) $cvcl_246) )  (and (and x_44 x_45) $cvcl_247) )  (and (and x_42 x_43) $cvcl_248) )  (and (and x_30 x_31) $cvcl_249) )  (and (and x_28 x_29) $cvcl_250) )  (and (and x_0 x_1) $cvcl_251) )  (and (and x_2 x_3) $cvcl_252) )  (and (and x_4 x_5) $cvcl_253) )  (and (and x_6 x_7) $cvcl_254) )  (and (and x_8 x_9) $cvcl_255) )  (and (and x_10 x_11) $cvcl_256) )  (and (and x_12 x_13) $cvcl_257) )  (and (and x_14 x_15) $cvcl_258) )  (and (and x_16 x_17) $cvcl_259) ))))))))))))))))))))))))))))))))))))))))))))))))))))))))))))))))))))))))))))))))))))))))))))))))))))))))))))))))))))))))))))))))))))))))))))))))))))))))))))))))))))))))))))))))))))))))))))))))))))))))))))))))))))))))))))))))))))))))))))))))))))))))))))))))))))))
)
