results/res_prop_muc/res_Cimatti_mathsat_cores/QF_RDL/fischer9-mutex-2.smt.smt2.res
unsat
( c10
  c1000
  c1008
  c109
  c11
  c1152
  c1154
  c1156
  c1158
  c1160
  c1162
  c1164
  c1166
  c1168
  c119
  c12
  c1246
  c1256
  c1266
  c1276
  c128
  c1294
  c13
  c1303
  c1312
  c1345
  c1355
  c1365
  c1375
  c1385
  c1394
  c14
  c1403
  c143
  c1436
  c1446
  c1456
  c1466
  c1476
  c148
  c1485
  c1494
  c15
  c1527
  c1537
  c1547
  c1557
  c1567
  c1576
  c1585
  c16
  c160
  c1618
  c1628
  c1638
  c1648
  c1658
  c166
  c1667
  c167
  c1676
  c17
  c170
  c1709
  c1719
  c1729
  c173
  c1739
  c1749
  c1758
  c176
  c1767
  c179
  c18
  c1800
  c1810
  c182
  c1820
  c1830
  c1840
  c1849
  c185
  c1858
  c188
  c1891
  c19
  c1901
  c1911
  c1921
  c1931
  c1940
  c1949
  c198
  c1982
  c1992
  c20
  c2002
  c2012
  c2022
  c2031
  c2040
  c2072
  c208
  c2086
  c2090
  c2094
  c2098
  c21
  c2102
  c2106
  c2110
  c2114
  c2118
  c2122
  c2126
  c2130
  c2134
  c2138
  c2142
  c2146
  c2150
  c2154
  c218
  c22
  c227
  c2298
  c2299
  c23
  c2300
  c2301
  c2302
  c2303
  c2304
  c2305
  c2306
  c2307
  c2308
  c2309
  c2310
  c2311
  c2312
  c2313
  c2314
  c2315
  c2325
  c2327
  c2331
  c2335
  c2339
  c2343
  c2347
  c2351
  c2355
  c2359
  c2362
  c2366
  c2370
  c2374
  c2378
  c2382
  c2386
  c239
  c2390
  c2394
  c2398
  c2399
  c24
  c2402
  c2403
  c2406
  c2407
  c2410
  c2411
  c2414
  c2415
  c2418
  c2419
  c2422
  c2423
  c2425
  c2431
  c25
  c251
  c257
  c258
  c26
  c261
  c264
  c267
  c27
  c270
  c273
  c276
  c279
  c28
  c289
  c29
  c299
  c30
  c309
  c31
  c318
  c32
  c33
  c330
  c342
  c348
  c349
  c352
  c355
  c358
  c361
  c364
  c367
  c370
  c380
  c390
  c400
  c409
  c41
  c421
  c433
  c439
  c440
  c443
  c446
  c449
  c452
  c455
  c458
  c461
  c471
  c481
  c49
  c491
  c500
  c512
  c524
  c530
  c531
  c534
  c537
  c540
  c543
  c546
  c549
  c552
  c562
  c57
  c572
  c582
  c591
  c6
  c603
  c615
  c621
  c622
  c625
  c628
  c631
  c634
  c637
  c640
  c643
  c65
  c653
  c663
  c673
  c682
  c694
  c7
  c706
  c712
  c713
  c716
  c719
  c722
  c725
  c728
  c73
  c731
  c734
  c744
  c754
  c764
  c773
  c785
  c797
  c8
  c803
  c804
  c807
  c81
  c810
  c813
  c816
  c819
  c822
  c825
  c835
  c845
  c855
  c864
  c876
  c888
  c89
  c894
  c895
  c898
  c9
  c901
  c904
  c907
  c910
  c913
  c916
  c926
  c944
  c952
  c960
  c968
  c97
  c976
  c984
  c99
  c992 )
